p cnf 152 275 
-130 130 0 
-130 141 -141 0 
-130 141 152 0 
-130 -152 -141 0 
-130 -152 152 0 
-141 141 130 0 
-141 141 141 -141 0 
-141 141 141 152 0 
-141 141 -152 -141 0 
-141 141 -152 152 0 
-141 152 130 0 
-141 152 141 -141 0 
-141 152 141 152 0 
-141 152 -152 -141 0 
-141 152 -152 152 0 
-152 141 130 0 
-152 141 141 -141 0 
-152 141 141 152 0 
-152 141 -152 -141 0 
-152 141 -152 152 0 
-152 152 130 0 
-152 152 141 -141 0 
-152 152 141 152 0 
-152 152 -152 -141 0 
-152 152 -152 152 0 
-117 117 0 
-117 127 -127 0 
-117 127 137 0 
-117 -137 -127 0 
-117 -137 137 0 
-127 127 117 0 
-127 127 127 -127 0 
-127 127 127 137 0 
-127 127 -137 -127 0 
-127 127 -137 137 0 
-127 137 117 0 
-127 137 127 -127 0 
-127 137 127 137 0 
-127 137 -137 -127 0 
-127 137 -137 137 0 
-137 127 117 0 
-137 127 127 -127 0 
-137 127 127 137 0 
-137 127 -137 -127 0 
-137 127 -137 137 0 
-137 137 117 0 
-137 137 127 -127 0 
-137 137 127 137 0 
-137 137 -137 -127 0 
-137 137 -137 137 0 
-104 104 0 
-104 113 -113 0 
-104 113 122 0 
-104 -122 -113 0 
-104 -122 122 0 
-113 113 104 0 
-113 113 113 -113 0 
-113 113 113 122 0 
-113 113 -122 -113 0 
-113 113 -122 122 0 
-113 122 104 0 
-113 122 113 -113 0 
-113 122 113 122 0 
-113 122 -122 -113 0 
-113 122 -122 122 0 
-122 113 104 0 
-122 113 113 -113 0 
-122 113 113 122 0 
-122 113 -122 -113 0 
-122 113 -122 122 0 
-122 122 104 0 
-122 122 113 -113 0 
-122 122 113 122 0 
-122 122 -122 -113 0 
-122 122 -122 122 0 
91 -91 0 
91 99 -99 0 
91 99 107 0 
91 -107 -99 0 
91 -107 107 0 
-99 99 -91 0 
-99 99 99 -99 0 
-99 99 99 107 0 
-99 99 -107 -99 0 
-99 99 -107 107 0 
-99 107 -91 0 
-99 107 99 -99 0 
-99 107 99 107 0 
-99 107 -107 -99 0 
-99 107 -107 107 0 
-107 99 -91 0 
-107 99 99 -99 0 
-107 99 99 107 0 
-107 99 -107 -99 0 
-107 99 -107 107 0 
-107 107 -91 0 
-107 107 99 -99 0 
-107 107 99 107 0 
-107 107 -107 -99 0 
-107 107 -107 107 0 
-78 78 0 
-78 85 -85 0 
-78 85 92 0 
-78 -92 -85 0 
-78 -92 92 0 
-85 85 78 0 
-85 85 85 -85 0 
-85 85 85 92 0 
-85 85 -92 -85 0 
-85 85 -92 92 0 
-85 92 78 0 
-85 92 85 -85 0 
-85 92 85 92 0 
-85 92 -92 -85 0 
-85 92 -92 92 0 
-92 85 78 0 
-92 85 85 -85 0 
-92 85 85 92 0 
-92 85 -92 -85 0 
-92 85 -92 92 0 
-92 92 78 0 
-92 92 85 -85 0 
-92 92 85 92 0 
-92 92 -92 -85 0 
-92 92 -92 92 0 
-65 65 0 
-65 71 -71 0 
-65 71 77 0 
-65 -77 -71 0 
-65 -77 77 0 
-71 71 65 0 
-71 71 71 -71 0 
-71 71 71 77 0 
-71 71 -77 -71 0 
-71 71 -77 77 0 
-71 77 65 0 
-71 77 71 -71 0 
-71 77 71 77 0 
-71 77 -77 -71 0 
-71 77 -77 77 0 
-77 71 65 0 
-77 71 71 -71 0 
-77 71 71 77 0 
-77 71 -77 -71 0 
-77 71 -77 77 0 
-77 77 65 0 
-77 77 71 -71 0 
-77 77 71 77 0 
-77 77 -77 -71 0 
-77 77 -77 77 0 
-52 52 0 
-52 57 -57 0 
-52 57 62 0 
-52 -62 -57 0 
-52 -62 62 0 
-57 57 52 0 
-57 57 57 -57 0 
-57 57 57 62 0 
-57 57 -62 -57 0 
-57 57 -62 62 0 
-57 62 52 0 
-57 62 57 -57 0 
-57 62 57 62 0 
-57 62 -62 -57 0 
-57 62 -62 62 0 
-62 57 52 0 
-62 57 57 -57 0 
-62 57 57 62 0 
-62 57 -62 -57 0 
-62 57 -62 62 0 
-62 62 52 0 
-62 62 57 -57 0 
-62 62 57 62 0 
-62 62 -62 -57 0 
-62 62 -62 62 0 
-39 39 0 
-39 43 -43 0 
-39 43 47 0 
-39 -47 -43 0 
-39 -47 47 0 
-43 43 39 0 
-43 43 43 -43 0 
-43 43 43 47 0 
-43 43 -47 -43 0 
-43 43 -47 47 0 
-43 47 39 0 
-43 47 43 -43 0 
-43 47 43 47 0 
-43 47 -47 -43 0 
-43 47 -47 47 0 
-47 43 39 0 
-47 43 43 -43 0 
-47 43 43 47 0 
-47 43 -47 -43 0 
-47 43 -47 47 0 
-47 47 39 0 
-47 47 43 -43 0 
-47 47 43 47 0 
-47 47 -47 -43 0 
-47 47 -47 47 0 
-26 26 0 
-26 29 -29 0 
-26 29 32 0 
-26 -32 -29 0 
-26 -32 32 0 
-29 29 26 0 
-29 29 29 -29 0 
-29 29 29 32 0 
-29 29 -32 -29 0 
-29 29 -32 32 0 
-29 32 26 0 
-29 32 29 -29 0 
-29 32 29 32 0 
-29 32 -32 -29 0 
-29 32 -32 32 0 
-32 29 26 0 
-32 29 29 -29 0 
-32 29 29 32 0 
-32 29 -32 -29 0 
-32 29 -32 32 0 
-32 32 26 0 
-32 32 29 -29 0 
-32 32 29 32 0 
-32 32 -32 -29 0 
-32 32 -32 32 0 
-13 13 0 
-13 15 -15 0 
-13 15 17 0 
-13 -17 -15 0 
-13 -17 17 0 
-15 15 13 0 
-15 15 15 -15 0 
-15 15 15 17 0 
-15 15 -17 -15 0 
-15 15 -17 17 0 
-15 17 13 0 
-15 17 15 -15 0 
-15 17 15 17 0 
-15 17 -17 -15 0 
-15 17 -17 17 0 
-17 15 13 0 
-17 15 15 -15 0 
-17 15 15 17 0 
-17 15 -17 -15 0 
-17 15 -17 17 0 
-17 17 13 0 
-17 17 15 -15 0 
-17 17 15 17 0 
-17 17 -17 -15 0 
-17 17 -17 17 0 
-0 0 0 
-0 1 -1 0 
-0 1 2 0 
-0 -2 -1 0 
-0 -2 2 0 
-1 1 0 0 
-1 1 1 -1 0 
-1 1 1 2 0 
-1 1 -2 -1 0 
-1 1 -2 2 0 
-1 2 0 0 
-1 2 1 -1 0 
-1 2 1 2 0 
-1 2 -2 -1 0 
-1 2 -2 2 0 
-2 1 0 0 
-2 1 1 -1 0 
-2 1 1 2 0 
-2 1 -2 -1 0 
-2 1 -2 2 0 
-2 2 0 0 
-2 2 1 -1 0 
-2 2 1 2 0 
-2 2 -2 -1 0 
-2 2 -2 2 0 


